Maximize

139 dSta_0 + 134 d0_2 + 32 dc2_16 + 35 dm2_16 + 99 dc2_18 + 102 dm2_18 + 4 d16_1 + 62 dc18_20 + 65 dm18_20 + 70 dc18_31 + 73 dm18_31 + 1 dc20_21 + 4 dm20_21 + 2 dc20_22 + 5 dm20_22 + 15 dc31_19 + 18 dm31_19 + 62 dc31_20 + 65 dm31_20 + 2 d21_22 + 32 dc22_23 + 35 dm22_23 + 65 dc22_25 + 68 dm22_25 + 62 dc19_20 + 65 dm19_20 + 15 dc19_19 + 18 dm19_19 + 1 dc23_24 + 4 dm23_24 + 65 dc23_25 + 68 dm23_25 + 33 dc25_26 + 36 dm25_26 + 32 dc25_27 + 35 dm25_27 + 65 d24_25 + 63 d26_30 + 31 dc27_28 + 34 dm27_28 + 31 dc27_29 + 34 dm27_29 + 14 dc30_3 + 17 dm30_3 + 32 dc30_16 + 35 dm30_16 + 31 d28_29 + 63 d29_30 + 5 dc3_5 + 8 dm3_5 + 40 dc3_17 + 43 dm3_17 + 1 dc5_6 + 4 dm5_6 + 2 dc5_7 + 5 dm5_7 + 15 dc17_4 + 18 dm17_4 + 5 dc17_5 + 8 dm17_5 + 2 d6_7 + 2 dc7_8 + 5 dm7_8 + 5 dc7_10 + 8 dm7_10 + 5 dc4_5 + 8 dm4_5 + 15 dc4_4 + 18 dm4_4 + 1 dc8_9 + 4 dm8_9 + 5 dc8_10 + 8 dm8_10 + 3 dc10_11 + 6 dm10_11 + 2 dc10_12 + 5 dm10_12 + 5 d9_10 + 3 d11_15 + 1 dc12_13 + 4 dm12_13 + 1 dc12_14 + 4 dm12_14 + 32 dc15_16 + 35 dm15_16 + 14 dc15_3 + 17 dm15_3 + 1 d13_14 + 3 d14_15


Subject to

bm - dm15_3 - dm30_3 - dm4_4 - dm17_4 - dm3_5 - dm4_5 - dm17_5 - dm5_6 - dm5_7 - dm7_8 - dm8_9 - dm7_10 - dm8_10 - dm10_11 - dm10_12 - dm12_13 - dm12_14 - dm2_16 - dm15_16 - dm30_16 - dm3_17 - dm2_18 - dm19_19 - dm31_19 - dm18_20 - dm19_20 - dm31_20 - dm20_21 - dm20_22 - dm22_23 - dm23_24 - dm22_25 - dm23_25 - dm25_26 - dm25_27 - dm27_28 - dm27_29 - dm18_31 = 0

\ === tcfg constraints ===
dSta_0 = 1
b0 - d0_2 = 0
b0 - dSta_0 = 0
b1 - d16_1 = 0
b2 - d2_16 - d2_18 = 0
b2 - d0_2 = 0
b3 - d3_5 - d3_17 = 0
b3 - d15_3 - d30_3 = 0
b4 - d4_5 - d4_4 = 0
b4 - d4_4 - d17_4 = 0
b5 - d5_6 - d5_7 = 0
b5 - d3_5 - d4_5 - d17_5 = 0
b6 - d6_7 = 0
b6 - d5_6 = 0
b7 - d7_8 - d7_10 = 0
b7 - d5_7 - d6_7 = 0
b8 - d8_9 - d8_10 = 0
b8 - d7_8 = 0
b9 - d9_10 = 0
b9 - d8_9 = 0
b10 - d10_11 - d10_12 = 0
b10 - d7_10 - d8_10 - d9_10 = 0
b11 - d11_15 = 0
b11 - d10_11 = 0
b12 - d12_13 - d12_14 = 0
b12 - d10_12 = 0
b13 - d13_14 = 0
b13 - d12_13 = 0
b14 - d14_15 = 0
b14 - d12_14 - d13_14 = 0
b15 - d15_16 - d15_3 = 0
b15 - d11_15 - d14_15 = 0
b16 - d16_1 = 0
b16 - d2_16 - d15_16 - d30_16 = 0
b17 - d17_4 - d17_5 = 0
b17 - d3_17 = 0
b18 - d18_20 - d18_31 = 0
b18 - d2_18 = 0
b19 - d19_20 - d19_19 = 0
b19 - d19_19 - d31_19 = 0
b20 - d20_21 - d20_22 = 0
b20 - d18_20 - d19_20 - d31_20 = 0
b21 - d21_22 = 0
b21 - d20_21 = 0
b22 - d22_23 - d22_25 = 0
b22 - d20_22 - d21_22 = 0
b23 - d23_24 - d23_25 = 0
b23 - d22_23 = 0
b24 - d24_25 = 0
b24 - d23_24 = 0
b25 - d25_26 - d25_27 = 0
b25 - d22_25 - d23_25 - d24_25 = 0
b26 - d26_30 = 0
b26 - d25_26 = 0
b27 - d27_28 - d27_29 = 0
b27 - d25_27 = 0
b28 - d28_29 = 0
b28 - d27_28 = 0
b29 - d29_30 = 0
b29 - d27_29 - d28_29 = 0
b30 - d30_3 - d30_16 = 0
b30 - d26_30 - d29_30 = 0
b31 - d31_19 - d31_20 = 0
b31 - d18_31 = 0

c0 - f0_1N <= 1
c0 - f0_1N >= 0
c0 <= 1
c0 >= 0
c1 - f1_3N - f1_2T <= 0
c1 - f1_3N - f1_2T >= 0
c1 - f0_1N <= 0
c1 - f0_1N >= 0
c2 - f2_5T - f2_4N <= 0
c2 - f2_5T - f2_4N >= 0
c2 - f1_2T <= 0
c2 - f1_2T >= 0
c3 - f3_7N - f3_6T <= 0
c3 - f3_7N - f3_6T >= 0
c3 - f1_3N <= 0
c3 - f1_3N >= 0
c4 - f4_9T - f4_8N <= 0
c4 - f4_9T - f4_8N >= 0
c4 - f2_4N <= 0
c4 - f2_4N >= 0
c5 - f5_11T - f5_10N <= 0
c5 - f5_11T - f5_10N >= 0
c5 - f2_5T <= 0
c5 - f2_5T >= 0
c6 - f6_13T - f6_12N <= 0
c6 - f6_13T - f6_12N >= 0
c6 - f3_6T <= 0
c6 - f3_6T >= 0
c7 - f7_15T - f7_14N <= 0
c7 - f7_15T - f7_14N >= 0
c7 - f3_7N <= 0
c7 - f3_7N >= 0
c8 - f8_9T - f8_16N <= 0
c8 - f8_9T - f8_16N >= 0
c8 - f14_8N - f4_8N <= 0
c8 - f14_8N - f4_8N >= 0
c9 - f9_18T - f9_17N <= 0
c9 - f9_18T - f9_17N >= 0
c9 - f14_9T - f10_9T - f8_9T - f4_9T <= 0
c9 - f14_9T - f10_9T - f8_9T - f4_9T >= 0
c10 - f10_9T - f10_16N <= 0
c10 - f10_9T - f10_16N >= 0
c10 - f15_10N - f5_10N <= 0
c10 - f15_10N - f5_10N >= 0
c11 - f11_18T - f11_17N <= 0
c11 - f11_18T - f11_17N >= 0
c11 - f15_11T - f5_11T <= 0
c11 - f15_11T - f5_11T >= 0
c12 - f12_15T - f12_14N <= 0
c12 - f12_15T - f12_14N >= 0
c12 - f13_12N - f6_12N <= 0
c12 - f13_12N - f6_12N >= 0
c13 - f13_13T - f13_12N <= 0
c13 - f13_13T - f13_12N >= 0
c13 - f13_13T - f6_13T <= 0
c13 - f13_13T - f6_13T >= 0
c14 - f14_9T - f14_8N <= 0
c14 - f14_9T - f14_8N >= 0
c14 - f12_14N - f7_14N <= 0
c14 - f12_14N - f7_14N >= 0
c15 - f15_11T - f15_10N <= 0
c15 - f15_11T - f15_10N >= 0
c15 - f12_15T - f7_15T <= 0
c15 - f12_15T - f7_15T >= 0
c16 - f16_20T - f16_19N <= 0
c16 - f16_20T - f16_19N >= 0
c16 - f10_16N - f8_16N <= 0
c16 - f10_16N - f8_16N >= 0
c17 - f17_21T <= 1
c17 - f17_21T >= 0
c17 - f20_17N - f18_17N - f11_17N - f9_17N <= 0
c17 - f20_17N - f18_17N - f11_17N - f9_17N >= 0
c18 - f18_22T - f18_17N <= 0
c18 - f18_22T - f18_17N >= 0
c18 - f11_18T - f9_18T <= 0
c18 - f11_18T - f9_18T >= 0
c19 - f19_21T <= 1
c19 - f19_21T >= 0
c19 - f16_19N <= 0
c19 - f16_19N >= 0
c20 - f20_22T - f20_17N <= 0
c20 - f20_22T - f20_17N >= 0
c20 - f16_20T <= 0
c20 - f16_20T >= 0
c21 - f21_24N - f21_23T <= 0
c21 - f21_24N - f21_23T >= 0
c21 - f41_21T - f39_21T - f19_21T - f17_21T <= 0
c21 - f41_21T - f39_21T - f19_21T - f17_21T >= 0
c22 - f22_25T <= 1
c22 - f22_25T >= 0
c22 - f20_22T - f18_22T <= 0
c22 - f20_22T - f18_22T >= 0
c23 - f23_27T - f23_26N <= 0
c23 - f23_27T - f23_26N >= 0
c23 - f25_23T - f21_23T <= 0
c23 - f25_23T - f21_23T >= 0
c24 - f24_29N - f24_28T <= 0
c24 - f24_29N - f24_28T >= 0
c24 - f25_24N - f21_24N <= 0
c24 - f25_24N - f21_24N >= 0
c25 - f25_24N - f25_23T <= 0
c25 - f25_24N - f25_23T >= 0
c25 - f43_25T - f22_25T <= 0
c25 - f43_25T - f22_25T >= 0
c26 - f26_31T - f26_30N <= 0
c26 - f26_31T - f26_30N >= 0
c26 - f23_26N <= 0
c26 - f23_26N >= 0
c27 - f27_33T - f27_32N <= 0
c27 - f27_33T - f27_32N >= 0
c27 - f23_27T <= 0
c27 - f23_27T >= 0
c28 - f28_35T - f28_34N <= 0
c28 - f28_35T - f28_34N >= 0
c28 - f24_28T <= 0
c28 - f24_28T >= 0
c29 - f29_37T - f29_36N <= 0
c29 - f29_37T - f29_36N >= 0
c29 - f24_29N <= 0
c29 - f24_29N >= 0
c30 - f30_31T - f30_38N <= 0
c30 - f30_31T - f30_38N >= 0
c30 - f36_30N - f26_30N <= 0
c30 - f36_30N - f26_30N >= 0
c31 - f31_40T - f31_39N <= 0
c31 - f31_40T - f31_39N >= 0
c31 - f36_31T - f32_31T - f30_31T - f26_31T <= 0
c31 - f36_31T - f32_31T - f30_31T - f26_31T >= 0
c32 - f32_31T - f32_38N <= 0
c32 - f32_31T - f32_38N >= 0
c32 - f37_32N - f27_32N <= 0
c32 - f37_32N - f27_32N >= 0
c33 - f33_40T - f33_39N <= 0
c33 - f33_40T - f33_39N >= 0
c33 - f37_33T - f27_33T <= 0
c33 - f37_33T - f27_33T >= 0
c34 - f34_37T - f34_36N <= 0
c34 - f34_37T - f34_36N >= 0
c34 - f35_34N - f28_34N <= 0
c34 - f35_34N - f28_34N >= 0
c35 - f35_35T - f35_34N <= 0
c35 - f35_35T - f35_34N >= 0
c35 - f35_35T - f28_35T <= 0
c35 - f35_35T - f28_35T >= 0
c36 - f36_31T - f36_30N <= 0
c36 - f36_31T - f36_30N >= 0
c36 - f34_36N - f29_36N <= 0
c36 - f34_36N - f29_36N >= 0
c37 - f37_33T - f37_32N <= 0
c37 - f37_33T - f37_32N >= 0
c37 - f34_37T - f29_37T <= 0
c37 - f34_37T - f29_37T >= 0
c38 - f38_42T - f38_41N <= 0
c38 - f38_42T - f38_41N >= 0
c38 - f32_38N - f30_38N <= 0
c38 - f32_38N - f30_38N >= 0
c39 - f39_21T <= 1
c39 - f39_21T >= 0
c39 - f42_39N - f40_39N - f33_39N - f31_39N <= 0
c39 - f42_39N - f40_39N - f33_39N - f31_39N >= 0
c40 - f40_43T - f40_39N <= 0
c40 - f40_43T - f40_39N >= 0
c40 - f33_40T - f31_40T <= 0
c40 - f33_40T - f31_40T >= 0
c41 - f41_21T <= 1
c41 - f41_21T >= 0
c41 - f38_41N <= 0
c41 - f38_41N >= 0
c42 - f42_43T - f42_39N <= 0
c42 - f42_43T - f42_39N >= 0
c42 - f38_42T <= 0
c42 - f38_42T >= 0
c43 - f43_25T <= 1
c43 - f43_25T >= 0
c43 - f42_43T - f40_43T <= 0
c43 - f42_43T - f40_43T >= 0


f0_1N - fc0_1N - fm0_1N = 0
f1_3N - fc1_3N - fm1_3N = 0
f1_2T - fc1_2T - fm1_2T = 0
f2_5T - fc2_5T - fm2_5T = 0
f2_4N - fc2_4N - fm2_4N = 0
f3_7N - fc3_7N - fm3_7N = 0
f3_6T - fc3_6T - fm3_6T = 0
f4_9T - fc4_9T - fm4_9T = 0
f4_8N - fc4_8N - fm4_8N = 0
f5_11T - fc5_11T - fm5_11T = 0
f5_10N - fc5_10N - fm5_10N = 0
f6_13T - fc6_13T - fm6_13T = 0
f6_12N - fc6_12N - fm6_12N = 0
f7_15T - fc7_15T - fm7_15T = 0
f7_14N - fc7_14N - fm7_14N = 0
f8_9T - fc8_9T - fm8_9T = 0
f8_16N - fc8_16N - fm8_16N = 0
f9_18T - fc9_18T - fm9_18T = 0
f9_17N - fc9_17N - fm9_17N = 0
f10_9T - fc10_9T - fm10_9T = 0
f10_16N - fc10_16N - fm10_16N = 0
f11_18T - fc11_18T - fm11_18T = 0
f11_17N - fc11_17N - fm11_17N = 0
f12_15T - fc12_15T - fm12_15T = 0
f12_14N - fc12_14N - fm12_14N = 0
f13_13T - fc13_13T - fm13_13T = 0
f13_12N - fc13_12N - fm13_12N = 0
f14_9T - fc14_9T - fm14_9T = 0
f14_8N - fc14_8N - fm14_8N = 0
f15_11T - fc15_11T - fm15_11T = 0
f15_10N - fc15_10N - fm15_10N = 0
f16_20T - fc16_20T - fm16_20T = 0
f16_19N - fc16_19N - fm16_19N = 0
f17_21T - fc17_21T - fm17_21T = 0
f18_22T - fc18_22T - fm18_22T = 0
f18_17N - fc18_17N - fm18_17N = 0
f19_21T - fc19_21T - fm19_21T = 0
f20_22T - fc20_22T - fm20_22T = 0
f20_17N - fc20_17N - fm20_17N = 0
f21_24N - fc21_24N - fm21_24N = 0
f21_23T - fc21_23T - fm21_23T = 0
f22_25T - fc22_25T - fm22_25T = 0
f23_27T - fc23_27T - fm23_27T = 0
f23_26N - fc23_26N - fm23_26N = 0
f24_29N - fc24_29N - fm24_29N = 0
f24_28T - fc24_28T - fm24_28T = 0
f25_24N - fc25_24N - fm25_24N = 0
f25_23T - fc25_23T - fm25_23T = 0
f26_31T - fc26_31T - fm26_31T = 0
f26_30N - fc26_30N - fm26_30N = 0
f27_33T - fc27_33T - fm27_33T = 0
f27_32N - fc27_32N - fm27_32N = 0
f28_35T - fc28_35T - fm28_35T = 0
f28_34N - fc28_34N - fm28_34N = 0
f29_37T - fc29_37T - fm29_37T = 0
f29_36N - fc29_36N - fm29_36N = 0
f30_31T - fc30_31T - fm30_31T = 0
f30_38N - fc30_38N - fm30_38N = 0
f31_40T - fc31_40T - fm31_40T = 0
f31_39N - fc31_39N - fm31_39N = 0
f32_31T - fc32_31T - fm32_31T = 0
f32_38N - fc32_38N - fm32_38N = 0
f33_40T - fc33_40T - fm33_40T = 0
f33_39N - fc33_39N - fm33_39N = 0
f34_37T - fc34_37T - fm34_37T = 0
f34_36N - fc34_36N - fm34_36N = 0
f35_35T - fc35_35T - fm35_35T = 0
f35_34N - fc35_34N - fm35_34N = 0
f36_31T - fc36_31T - fm36_31T = 0
f36_30N - fc36_30N - fm36_30N = 0
f37_33T - fc37_33T - fm37_33T = 0
f37_32N - fc37_32N - fm37_32N = 0
f38_42T - fc38_42T - fm38_42T = 0
f38_41N - fc38_41N - fm38_41N = 0
f39_21T - fc39_21T - fm39_21T = 0
f40_43T - fc40_43T - fm40_43T = 0
f40_39N - fc40_39N - fm40_39N = 0
f41_21T - fc41_21T - fm41_21T = 0
f42_43T - fc42_43T - fm42_43T = 0
f42_39N - fc42_39N - fm42_39N = 0
f43_25T - fc43_25T - fm43_25T = 0

c0 <= 1
c0 >= 0
c1 <= 1
c1 >= 0
c2 <= 1
c2 >= 0
c3 <= 1
c3 >= 0
c4 <= 1
c4 >= 0
c5 <= 1
c5 >= 0
c6 <= 1
c6 >= 0
c7 <= 1
c7 >= 0
c8 <= 1
c8 >= 0
c9 <= 1
c9 >= 0
c10 <= 1
c10 >= 0
c11 <= 1
c11 >= 0
c12 <= 1
c12 >= 0
c13 - p13_13T <= 1
c13 - p13_13T >= 0
c14 <= 1
c14 >= 0
c15 <= 1
c15 >= 0
c16 <= 1
c16 >= 0
c17 <= 1
c17 >= 0
c18 <= 1
c18 >= 0
c19 <= 1
c19 >= 0
c20 <= 1
c20 >= 0
c21 - p39_21T - p21_21N - p21_21T - p17_21T <= 1
c21 - p39_21T - p21_21N - p21_21T - p17_21T >= 0
c22 - p1_22N - p1_22T <= 0
c22 - p1_22N - p1_22T >= 0
c23 - p23_23N - p23_23T <= 1
c23 - p23_23N - p23_23T >= 0
c24 - p24_24N - p24_24T <= 1
c24 - p24_24N - p24_24T >= 0
c25 - p41_25T - p25_25N - p25_25T - p19_25T <= 1
c25 - p41_25T - p25_25N - p25_25T - p19_25T >= 0
c26 - p26_26N - p26_26T - p4_26N - p4_26T <= 1
c26 - p26_26N - p26_26T - p4_26N - p4_26T >= 0
c27 - p27_27N - p27_27T - p5_27N - p5_27T <= 1
c27 - p27_27N - p27_27T - p5_27N - p5_27T >= 0
c28 - p28_28N - p28_28T - p6_28N - p6_28T <= 1
c28 - p28_28N - p28_28T - p6_28N - p6_28T >= 0
c29 - p29_29N - p29_29T - p7_29N - p7_29T <= 1
c29 - p29_29N - p29_29T - p7_29N - p7_29T >= 0
c30 - p30_30N - p30_30T - p8_30N - p8_30T <= 1
c30 - p30_30N - p30_30T - p8_30N - p8_30T >= 0
c31 - p31_31N - p31_31T - p9_31N - p9_31T <= 1
c31 - p31_31N - p31_31T - p9_31N - p9_31T >= 0
c32 - p32_32N - p32_32T - p10_32N - p10_32T <= 1
c32 - p32_32N - p32_32T - p10_32N - p10_32T >= 0
c33 - p33_33N - p33_33T - p11_33N - p11_33T <= 1
c33 - p33_33N - p33_33T - p11_33N - p11_33T >= 0
c34 - p34_34N - p34_34T - p12_34N - p12_34T <= 1
c34 - p34_34N - p34_34T - p12_34N - p12_34T >= 0
c35 - p35_35N - p35_35T - p13_35N <= 1
c35 - p35_35N - p35_35T - p13_35N >= 0
c36 - p36_36N - p36_36T - p14_36N - p14_36T <= 1
c36 - p36_36N - p36_36T - p14_36N - p14_36T >= 0
c37 - p37_37N - p37_37T - p15_37N - p15_37T <= 1
c37 - p37_37N - p37_37T - p15_37N - p15_37T >= 0
c38 - p38_38N - p38_38T - p16_38N - p16_38T <= 1
c38 - p38_38N - p38_38T - p16_38N - p16_38T >= 0
c39 - p21_39N - p21_39T <= 1
c39 - p21_39N - p21_39T >= 0
c40 - p40_40N - p40_40T - p18_40N - p18_40T <= 1
c40 - p40_40N - p40_40T - p18_40N - p18_40T >= 0
c41 - p41_41T - p25_41N - p25_41T - p19_41T <= 1
c41 - p41_41T - p25_41N - p25_41T - p19_41T >= 0
c42 - p42_42N - p42_42T - p20_42N - p20_42T <= 1
c42 - p42_42N - p42_42T - p20_42N - p20_42T >= 0
c43 - p43_43T - p22_43T - p1_43N - p1_43T <= 0
c43 - p43_43T - p22_43T - p1_43N - p1_43T >= 0

f0_1N <= 1
f0_1N >= 0
f1_3N - p1_43N - p1_22N <= 1
f1_3N - p1_43N - p1_22N >= 0
f1_2T - p1_43T - p1_22T <= 1
f1_2T - p1_43T - p1_22T >= 0
f2_5T <= 1
f2_5T >= 0
f2_4N <= 1
f2_4N >= 0
f3_7N <= 1
f3_7N >= 0
f3_6T <= 1
f3_6T >= 0
f4_9T - p4_26T <= 1
f4_9T - p4_26T >= 0
f4_8N - p4_26N <= 1
f4_8N - p4_26N >= 0
f5_11T - p5_27T <= 1
f5_11T - p5_27T >= 0
f5_10N - p5_27N <= 1
f5_10N - p5_27N >= 0
f6_13T - p6_28T <= 1
f6_13T - p6_28T >= 0
f6_12N - p6_28N <= 1
f6_12N - p6_28N >= 0
f7_15T - p7_29T <= 1
f7_15T - p7_29T >= 0
f7_14N - p7_29N <= 1
f7_14N - p7_29N >= 0
f8_9T - p8_30T <= 1
f8_9T - p8_30T >= 0
f8_16N - p8_30N <= 1
f8_16N - p8_30N >= 0
f9_18T - p9_31T <= 1
f9_18T - p9_31T >= 0
f9_17N - p9_31N <= 1
f9_17N - p9_31N >= 0
f10_9T - p10_32T <= 1
f10_9T - p10_32T >= 0
f10_16N - p10_32N <= 1
f10_16N - p10_32N >= 0
f11_18T - p11_33T <= 1
f11_18T - p11_33T >= 0
f11_17N - p11_33N <= 1
f11_17N - p11_33N >= 0
f12_15T - p12_34T <= 1
f12_15T - p12_34T >= 0
f12_14N - p12_34N <= 1
f12_14N - p12_34N >= 0
f13_13T - p13_13T <= 0
f13_13T - p13_13T >= 0
f13_12N - p13_35N <= 1
f13_12N - p13_35N >= 0
f14_9T - p14_36T <= 1
f14_9T - p14_36T >= 0
f14_8N - p14_36N <= 1
f14_8N - p14_36N >= 0
f15_11T - p15_37T <= 1
f15_11T - p15_37T >= 0
f15_10N - p15_37N <= 1
f15_10N - p15_37N >= 0
f16_20T - p16_38T <= 1
f16_20T - p16_38T >= 0
f16_19N - p16_38N <= 1
f16_19N - p16_38N >= 0
f17_21T - p17_21T <= 0
f17_21T - p17_21T >= 0
f18_22T - p18_40T <= 1
f18_22T - p18_40T >= 0
f18_17N - p18_40N <= 1
f18_17N - p18_40N >= 0
f19_21T - p19_25T - p19_41T <= 1
f19_21T - p19_25T - p19_41T >= 0
f20_22T - p20_42T <= 1
f20_22T - p20_42T >= 0
f20_17N - p20_42N <= 1
f20_17N - p20_42N >= 0
f21_24N - p21_21N - p21_39N <= 1
f21_24N - p21_21N - p21_39N >= 0
f21_23T - p21_21T - p21_39T <= 1
f21_23T - p21_21T - p21_39T >= 0
f22_25T - p22_43T <= 1
f22_25T - p22_43T >= 0
f23_27T - p23_23T <= 1
f23_27T - p23_23T >= 0
f23_26N - p23_23N <= 1
f23_26N - p23_23N >= 0
f24_29N - p24_24N <= 1
f24_29N - p24_24N >= 0
f24_28T - p24_24T <= 1
f24_28T - p24_24T >= 0
f25_24N - p25_25N - p25_41N <= 1
f25_24N - p25_25N - p25_41N >= 0
f25_23T - p25_25T - p25_41T <= 1
f25_23T - p25_25T - p25_41T >= 0
f26_31T - p26_26T <= 1
f26_31T - p26_26T >= 0
f26_30N - p26_26N <= 1
f26_30N - p26_26N >= 0
f27_33T - p27_27T <= 1
f27_33T - p27_27T >= 0
f27_32N - p27_27N <= 1
f27_32N - p27_27N >= 0
f28_35T - p28_28T <= 1
f28_35T - p28_28T >= 0
f28_34N - p28_28N <= 1
f28_34N - p28_28N >= 0
f29_37T - p29_29T <= 1
f29_37T - p29_29T >= 0
f29_36N - p29_29N <= 1
f29_36N - p29_29N >= 0
f30_31T - p30_30T <= 1
f30_31T - p30_30T >= 0
f30_38N - p30_30N <= 1
f30_38N - p30_30N >= 0
f31_40T - p31_31T <= 1
f31_40T - p31_31T >= 0
f31_39N - p31_31N <= 1
f31_39N - p31_31N >= 0
f32_31T - p32_32T <= 1
f32_31T - p32_32T >= 0
f32_38N - p32_32N <= 1
f32_38N - p32_32N >= 0
f33_40T - p33_33T <= 1
f33_40T - p33_33T >= 0
f33_39N - p33_33N <= 1
f33_39N - p33_33N >= 0
f34_37T - p34_34T <= 1
f34_37T - p34_34T >= 0
f34_36N - p34_34N <= 1
f34_36N - p34_34N >= 0
f35_35T - p35_35T <= 0
f35_35T - p35_35T >= 0
f35_34N - p35_35N <= 1
f35_34N - p35_35N >= 0
f36_31T - p36_36T <= 1
f36_31T - p36_36T >= 0
f36_30N - p36_36N <= 1
f36_30N - p36_36N >= 0
f37_33T - p37_37T <= 1
f37_33T - p37_37T >= 0
f37_32N - p37_37N <= 1
f37_32N - p37_37N >= 0
f38_42T - p38_38T <= 1
f38_42T - p38_38T >= 0
f38_41N - p38_38N <= 1
f38_41N - p38_38N >= 0
f39_21T - p39_21T <= 0
f39_21T - p39_21T >= 0
f40_43T - p40_40T <= 1
f40_43T - p40_40T >= 0
f40_39N - p40_40N <= 1
f40_39N - p40_40N >= 0
f41_21T - p41_25T - p41_41T <= 1
f41_21T - p41_25T - p41_41T >= 0
f42_43T - p42_42T <= 1
f42_43T - p42_42T >= 0
f42_39N - p42_42N <= 1
f42_39N - p42_42N >= 0
f43_25T - p43_43T <= 1
f43_25T - p43_43T >= 0

fm0_1N <= 0
fm1_3N <= 0
fm1_2T <= 1
fm2_5T <= 1
fm2_4N <= 1
fm3_7N <= 1
fm3_6T <= 1
fm4_9T <= 1
fm4_8N <= 1
fm5_11T <= 1
fm5_10N <= 1
fm6_13T <= 1
fm6_12N <= 1
fm7_15T <= 1
fm7_14N <= 1
fm8_9T <= 1
fm8_16N <= 1
fm9_18T <= 1
fm9_17N <= 1
fm10_9T <= 1
fm10_16N <= 1
fm11_18T <= 1
fm11_17N <= 1
fm12_15T <= 1
fm12_14N <= 1
fm13_13T <= 1
fm13_12N - p13_13T <= 1
fm14_9T <= 1
fm14_8N <= 1
fm15_11T <= 1
fm15_10N <= 1
fm16_20T <= 1
fm16_19N <= 1
fm17_21T <= 1
fm18_22T <= 1
fm18_17N <= 1
fm19_21T <= 1
fm20_22T <= 1
fm20_17N <= 1
fm21_24N - p39_21T - p21_21T - p17_21T <= 1
fm21_23T - p21_21N <= 1
fm22_25T - p1_22N <= 1
fm23_27T - p23_23N <= 1
fm23_26N - p23_23T <= 1
fm24_29N - p24_24T <= 1
fm24_28T - p24_24N <= 1
fm25_24N - p41_25T - p25_25T - p19_25T <= 1
fm25_23T - p25_25N <= 1
fm26_31T - p26_26N - p4_26N <= 1
fm26_30N - p26_26T - p4_26T <= 1
fm27_33T - p27_27N - p5_27N <= 1
fm27_32N - p27_27T - p5_27T <= 1
fm28_35T - p28_28N - p6_28N <= 1
fm28_34N - p28_28T - p6_28T <= 1
fm29_37T - p29_29N - p7_29N <= 1
fm29_36N - p29_29T - p7_29T <= 1
fm30_31T - p30_30N - p8_30N <= 1
fm30_38N - p30_30T - p8_30T <= 1
fm31_40T - p31_31N - p9_31N <= 1
fm31_39N - p31_31T - p9_31T <= 1
fm32_31T - p32_32N - p10_32N <= 1
fm32_38N - p32_32T - p10_32T <= 1
fm33_40T - p33_33N - p11_33N <= 1
fm33_39N - p33_33T - p11_33T <= 1
fm34_37T - p34_34N - p12_34N <= 1
fm34_36N - p34_34T - p12_34T <= 1
fm35_35T - p35_35N - p13_35N <= 1
fm35_34N - p35_35T <= 1
fm36_31T - p36_36N - p14_36N <= 1
fm36_30N - p36_36T - p14_36T <= 1
fm37_33T - p37_37N - p15_37N <= 1
fm37_32N - p37_37T - p15_37T <= 1
fm38_42T - p38_38N - p16_38N <= 1
fm38_41N - p38_38T - p16_38T <= 1
fm39_21T - p21_39N <= 1
fm40_43T - p40_40N - p18_40N <= 1
fm40_39N - p40_40T - p18_40T <= 1
fm41_21T - p25_41N <= 1
fm42_43T - p42_42N - p20_42N <= 1
fm42_39N - p42_42T - p20_42T <= 1
fm43_25T - p1_43N <= 1

b2 - c0 = 0
b3 - c25 - c21 = 0
b4 - c35 - c28 = 0
b5 - c23 - c34 - c29 = 0
b7 - c27 - c26 - c37 - c36 = 0
b8 - c32 - c30 = 0
b10 - c33 - c31 - c38 = 0
b12 - c40 - c42 = 0
b15 - c41 - c39 - c43 = 0
b17 - c24 = 0
b18 - c1 = 0
b19 - c13 - c6 = 0
b20 - c12 - c2 - c7 = 0
b22 - c5 - c4 - c15 - c14 = 0
b23 - c10 - c8 = 0
b25 - c11 - c9 - c16 = 0
b27 - c18 - c20 = 0
b30 - c19 - c17 - c22 = 0
b31 - c3 = 0
\ === tcfg edge-bpred constraints ===
d2_16 - dc2_16 - dm2_16 = 0
d2_18 - dc2_18 - dm2_18 = 0
d3_5 - dc3_5 - dm3_5 = 0
d3_17 - dc3_17 - dm3_17 = 0
d4_5 - dc4_5 - dm4_5 = 0
d4_4 - dc4_4 - dm4_4 = 0
d5_6 - dc5_6 - dm5_6 = 0
d5_7 - dc5_7 - dm5_7 = 0
d7_8 - dc7_8 - dm7_8 = 0
d7_10 - dc7_10 - dm7_10 = 0
d8_9 - dc8_9 - dm8_9 = 0
d8_10 - dc8_10 - dm8_10 = 0
d10_11 - dc10_11 - dm10_11 = 0
d10_12 - dc10_12 - dm10_12 = 0
d12_13 - dc12_13 - dm12_13 = 0
d12_14 - dc12_14 - dm12_14 = 0
d15_16 - dc15_16 - dm15_16 = 0
d15_3 - dc15_3 - dm15_3 = 0
d17_4 - dc17_4 - dm17_4 = 0
d17_5 - dc17_5 - dm17_5 = 0
d18_20 - dc18_20 - dm18_20 = 0
d18_31 - dc18_31 - dm18_31 = 0
d19_20 - dc19_20 - dm19_20 = 0
d19_19 - dc19_19 - dm19_19 = 0
d20_21 - dc20_21 - dm20_21 = 0
d20_22 - dc20_22 - dm20_22 = 0
d22_23 - dc22_23 - dm22_23 = 0
d22_25 - dc22_25 - dm22_25 = 0
d23_24 - dc23_24 - dm23_24 = 0
d23_25 - dc23_25 - dm23_25 = 0
d25_26 - dc25_26 - dm25_26 = 0
d25_27 - dc25_27 - dm25_27 = 0
d27_28 - dc27_28 - dm27_28 = 0
d27_29 - dc27_29 - dm27_29 = 0
d30_3 - dc30_3 - dm30_3 = 0
d30_16 - dc30_16 - dm30_16 = 0
d31_19 - dc31_19 - dm31_19 = 0
d31_20 - dc31_20 - dm31_20 = 0
d2_16 <= 1
dm2_16 <= 1
d2_18 - f0_1N = 0
dm2_18 - fm0_1N = 0
d3_5 - f25_23T - f21_23T = 0
dm3_5 - fm25_23T - fm21_23T = 0
d3_17 - f25_24N - f21_24N = 0
dm3_17 - fm25_24N - fm21_24N = 0
d4_5 - f35_34N - f28_34N = 0
dm4_5 - fm35_34N - fm28_34N = 0
d4_4 - f35_35T - f28_35T = 0
dm4_4 - fm35_35T - fm28_35T = 0
d5_6 - f23_26N - f34_36N - f29_36N = 0
dm5_6 - fm23_26N - fm34_36N - fm29_36N = 0
d5_7 - f23_27T - f34_37T - f29_37T = 0
dm5_7 - fm23_27T - fm34_37T - fm29_37T = 0
d7_8 - f27_32N - f26_30N - f37_32N - f36_30N = 0
dm7_8 - fm27_32N - fm26_30N - fm37_32N - fm36_30N = 0
d7_10 - f27_33T - f26_31T - f37_33T - f36_31T = 0
dm7_10 - fm27_33T - fm26_31T - fm37_33T - fm36_31T = 0
d8_9 - f32_38N - f30_38N = 0
dm8_9 - fm32_38N - fm30_38N = 0
d8_10 - f32_31T - f30_31T = 0
dm8_10 - fm32_31T - fm30_31T = 0
d10_11 - f33_39N - f31_39N - f38_41N = 0
dm10_11 - fm33_39N - fm31_39N - fm38_41N = 0
d10_12 - f33_40T - f31_40T - f38_42T = 0
dm10_12 - fm33_40T - fm31_40T - fm38_42T = 0
d12_13 - f40_39N - f42_39N = 0
dm12_13 - fm40_39N - fm42_39N = 0
d12_14 - f40_43T - f42_43T = 0
dm12_14 - fm40_43T - fm42_43T = 0
d15_16 <= 1
dm15_16 <= 1
d15_3 - f41_21T - f39_21T - f43_25T = 0
dm15_3 - fm41_21T - fm39_21T - fm43_25T = 0
d17_4 - f24_28T = 0
dm17_4 - fm24_28T = 0
d17_5 - f24_29N = 0
dm17_5 - fm24_29N = 0
d18_20 - f1_2T = 0
dm18_20 - fm1_2T = 0
d18_31 - f1_3N = 0
dm18_31 - fm1_3N = 0
d19_20 - f13_12N - f6_12N = 0
dm19_20 - fm13_12N - fm6_12N = 0
d19_19 - f13_13T - f6_13T = 0
dm19_19 - fm13_13T - fm6_13T = 0
d20_21 - f12_14N - f2_4N - f7_14N = 0
dm20_21 - fm12_14N - fm2_4N - fm7_14N = 0
d20_22 - f12_15T - f2_5T - f7_15T = 0
dm20_22 - fm12_15T - fm2_5T - fm7_15T = 0
d22_23 - f5_10N - f4_8N - f15_10N - f14_8N = 0
dm22_23 - fm5_10N - fm4_8N - fm15_10N - fm14_8N = 0
d22_25 - f5_11T - f4_9T - f15_11T - f14_9T = 0
dm22_25 - fm5_11T - fm4_9T - fm15_11T - fm14_9T = 0
d23_24 - f10_16N - f8_16N = 0
dm23_24 - fm10_16N - fm8_16N = 0
d23_25 - f10_9T - f8_9T = 0
dm23_25 - fm10_9T - fm8_9T = 0
d25_26 - f11_17N - f9_17N - f16_19N = 0
dm25_26 - fm11_17N - fm9_17N - fm16_19N = 0
d25_27 - f11_18T - f9_18T - f16_20T = 0
dm25_27 - fm11_18T - fm9_18T - fm16_20T = 0
d27_28 - f18_17N - f20_17N = 0
dm27_28 - fm18_17N - fm20_17N = 0
d27_29 - f18_22T - f20_22T = 0
dm27_29 - fm18_22T - fm20_22T = 0
d30_3 - f19_21T - f17_21T - f22_25T = 0
dm30_3 - fm19_21T - fm17_21T - fm22_25T = 0
d30_16 <= 1
dm30_16 <= 1
d31_19 - f3_6T = 0
dm31_19 - fm3_6T = 0
d31_20 - f3_7N = 0
dm31_20 - fm3_7N = 0

\ === tcfg_estunit_cons ===
d0_2 - d0_2.0 - d0_2.1 = 0
d2_16 - d2_16.0 - d2_16.1 = 0
d2_16.0 - dc2_16.0 - dm2_16.0 = 0
d2_16.1 - dc2_16.1 - dm2_16.1 = 0
dc2_16 - dc2_16.0 - dc2_16.1 = 0
dm2_16 - dm2_16.0 - dm2_16.1 = 0
d2_18 - d2_18.0 - d2_18.1 = 0
d2_18.0 - dc2_18.0 - dm2_18.0 = 0
d2_18.1 - dc2_18.1 - dm2_18.1 = 0
dc2_18 - dc2_18.0 - dc2_18.1 = 0
dm2_18 - dm2_18.0 - dm2_18.1 = 0
d16_1 - d16_1.0 - d16_1.1 = 0
d18_20 - d18_20.0 - d18_20.1 = 0
d18_20.0 - dc18_20.0 - dm18_20.0 = 0
d18_20.1 - dc18_20.1 - dm18_20.1 = 0
dc18_20 - dc18_20.0 - dc18_20.1 = 0
dm18_20 - dm18_20.0 - dm18_20.1 = 0
d18_31 - d18_31.0 - d18_31.1 = 0
d18_31.0 - dc18_31.0 - dm18_31.0 = 0
d18_31.1 - dc18_31.1 - dm18_31.1 = 0
dc18_31 - dc18_31.0 - dc18_31.1 = 0
dm18_31 - dm18_31.0 - dm18_31.1 = 0
d20_21 - d20_21.0 - d20_21.1 = 0
d20_21.0 - dc20_21.0 - dm20_21.0 = 0
d20_21.1 - dc20_21.1 - dm20_21.1 = 0
dc20_21 - dc20_21.0 - dc20_21.1 = 0
dm20_21 - dm20_21.0 - dm20_21.1 = 0
d20_22 - d20_22.0 - d20_22.1 = 0
d20_22.0 - dc20_22.0 - dm20_22.0 = 0
d20_22.1 - dc20_22.1 - dm20_22.1 = 0
dc20_22 - dc20_22.0 - dc20_22.1 = 0
dm20_22 - dm20_22.0 - dm20_22.1 = 0
d31_19 - d31_19.0 - d31_19.1 = 0
d31_19.0 - dc31_19.0 - dm31_19.0 = 0
d31_19.1 - dc31_19.1 - dm31_19.1 = 0
dc31_19 - dc31_19.0 - dc31_19.1 = 0
dm31_19 - dm31_19.0 - dm31_19.1 = 0
d31_20 - d31_20.0 - d31_20.1 = 0
d31_20.0 - dc31_20.0 - dm31_20.0 = 0
d31_20.1 - dc31_20.1 - dm31_20.1 = 0
dc31_20 - dc31_20.0 - dc31_20.1 = 0
dm31_20 - dm31_20.0 - dm31_20.1 = 0
d21_22 - d21_22.0 - d21_22.1 = 0
d22_23 - d22_23.0 - d22_23.1 = 0
d22_23.0 - dc22_23.0 - dm22_23.0 = 0
d22_23.1 - dc22_23.1 - dm22_23.1 = 0
dc22_23 - dc22_23.0 - dc22_23.1 = 0
dm22_23 - dm22_23.0 - dm22_23.1 = 0
d22_25 - d22_25.0 - d22_25.1 = 0
d22_25.0 - dc22_25.0 - dm22_25.0 = 0
d22_25.1 - dc22_25.1 - dm22_25.1 = 0
dc22_25 - dc22_25.0 - dc22_25.1 = 0
dm22_25 - dm22_25.0 - dm22_25.1 = 0
d19_20 - d19_20.0 - d19_20.1 = 0
d19_20.0 - dc19_20.0 - dm19_20.0 = 0
d19_20.1 - dc19_20.1 - dm19_20.1 = 0
dc19_20 - dc19_20.0 - dc19_20.1 = 0
dm19_20 - dm19_20.0 - dm19_20.1 = 0
d19_19 - d19_19.0 - d19_19.1 = 0
d19_19.0 - dc19_19.0 - dm19_19.0 = 0
d19_19.1 - dc19_19.1 - dm19_19.1 = 0
dc19_19 - dc19_19.0 - dc19_19.1 = 0
dm19_19 - dm19_19.0 - dm19_19.1 = 0
d23_24 - d23_24.0 - d23_24.1 = 0
d23_24.0 - dc23_24.0 - dm23_24.0 = 0
d23_24.1 - dc23_24.1 - dm23_24.1 = 0
dc23_24 - dc23_24.0 - dc23_24.1 = 0
dm23_24 - dm23_24.0 - dm23_24.1 = 0
d23_25 - d23_25.0 - d23_25.1 = 0
d23_25.0 - dc23_25.0 - dm23_25.0 = 0
d23_25.1 - dc23_25.1 - dm23_25.1 = 0
dc23_25 - dc23_25.0 - dc23_25.1 = 0
dm23_25 - dm23_25.0 - dm23_25.1 = 0
d25_26 - d25_26.0 - d25_26.1 = 0
d25_26.0 - dc25_26.0 - dm25_26.0 = 0
d25_26.1 - dc25_26.1 - dm25_26.1 = 0
dc25_26 - dc25_26.0 - dc25_26.1 = 0
dm25_26 - dm25_26.0 - dm25_26.1 = 0
d25_27 - d25_27.0 - d25_27.1 = 0
d25_27.0 - dc25_27.0 - dm25_27.0 = 0
d25_27.1 - dc25_27.1 - dm25_27.1 = 0
dc25_27 - dc25_27.0 - dc25_27.1 = 0
dm25_27 - dm25_27.0 - dm25_27.1 = 0
d24_25 - d24_25.0 - d24_25.1 = 0
d26_30 - d26_30.0 - d26_30.1 = 0
d27_28 - d27_28.0 - d27_28.1 = 0
d27_28.0 - dc27_28.0 - dm27_28.0 = 0
d27_28.1 - dc27_28.1 - dm27_28.1 = 0
dc27_28 - dc27_28.0 - dc27_28.1 = 0
dm27_28 - dm27_28.0 - dm27_28.1 = 0
d27_29 - d27_29.0 - d27_29.1 = 0
d27_29.0 - dc27_29.0 - dm27_29.0 = 0
d27_29.1 - dc27_29.1 - dm27_29.1 = 0
dc27_29 - dc27_29.0 - dc27_29.1 = 0
dm27_29 - dm27_29.0 - dm27_29.1 = 0
d30_3 - d30_3.0 - d30_3.1 = 0
d30_3.0 - dc30_3.0 - dm30_3.0 = 0
d30_3.1 - dc30_3.1 - dm30_3.1 = 0
dc30_3 - dc30_3.0 - dc30_3.1 = 0
dm30_3 - dm30_3.0 - dm30_3.1 = 0
d30_16 - d30_16.0 - d30_16.1 = 0
d30_16.0 - dc30_16.0 - dm30_16.0 = 0
d30_16.1 - dc30_16.1 - dm30_16.1 = 0
dc30_16 - dc30_16.0 - dc30_16.1 = 0
dm30_16 - dm30_16.0 - dm30_16.1 = 0
d28_29 - d28_29.0 - d28_29.1 = 0
d29_30 - d29_30.0 - d29_30.1 = 0
d3_5 - d3_5.0 - d3_5.1 = 0
d3_5.0 - dc3_5.0 - dm3_5.0 = 0
d3_5.1 - dc3_5.1 - dm3_5.1 = 0
dc3_5 - dc3_5.0 - dc3_5.1 = 0
dm3_5 - dm3_5.0 - dm3_5.1 = 0
d3_17 - d3_17.0 - d3_17.1 = 0
d3_17.0 - dc3_17.0 - dm3_17.0 = 0
d3_17.1 - dc3_17.1 - dm3_17.1 = 0
dc3_17 - dc3_17.0 - dc3_17.1 = 0
dm3_17 - dm3_17.0 - dm3_17.1 = 0
d5_6 - d5_6.0 - d5_6.1 = 0
d5_6.0 - dc5_6.0 - dm5_6.0 = 0
d5_6.1 - dc5_6.1 - dm5_6.1 = 0
dc5_6 - dc5_6.0 - dc5_6.1 = 0
dm5_6 - dm5_6.0 - dm5_6.1 = 0
d5_7 - d5_7.0 - d5_7.1 = 0
d5_7.0 - dc5_7.0 - dm5_7.0 = 0
d5_7.1 - dc5_7.1 - dm5_7.1 = 0
dc5_7 - dc5_7.0 - dc5_7.1 = 0
dm5_7 - dm5_7.0 - dm5_7.1 = 0
d17_4 - d17_4.0 - d17_4.1 = 0
d17_4.0 - dc17_4.0 - dm17_4.0 = 0
d17_4.1 - dc17_4.1 - dm17_4.1 = 0
dc17_4 - dc17_4.0 - dc17_4.1 = 0
dm17_4 - dm17_4.0 - dm17_4.1 = 0
d17_5 - d17_5.0 - d17_5.1 = 0
d17_5.0 - dc17_5.0 - dm17_5.0 = 0
d17_5.1 - dc17_5.1 - dm17_5.1 = 0
dc17_5 - dc17_5.0 - dc17_5.1 = 0
dm17_5 - dm17_5.0 - dm17_5.1 = 0
d6_7 - d6_7.0 - d6_7.1 = 0
d7_8 - d7_8.0 - d7_8.1 = 0
d7_8.0 - dc7_8.0 - dm7_8.0 = 0
d7_8.1 - dc7_8.1 - dm7_8.1 = 0
dc7_8 - dc7_8.0 - dc7_8.1 = 0
dm7_8 - dm7_8.0 - dm7_8.1 = 0
d7_10 - d7_10.0 - d7_10.1 = 0
d7_10.0 - dc7_10.0 - dm7_10.0 = 0
d7_10.1 - dc7_10.1 - dm7_10.1 = 0
dc7_10 - dc7_10.0 - dc7_10.1 = 0
dm7_10 - dm7_10.0 - dm7_10.1 = 0
d4_5 - d4_5.0 - d4_5.1 = 0
d4_5.0 - dc4_5.0 - dm4_5.0 = 0
d4_5.1 - dc4_5.1 - dm4_5.1 = 0
dc4_5 - dc4_5.0 - dc4_5.1 = 0
dm4_5 - dm4_5.0 - dm4_5.1 = 0
d4_4 - d4_4.0 - d4_4.1 = 0
d4_4.0 - dc4_4.0 - dm4_4.0 = 0
d4_4.1 - dc4_4.1 - dm4_4.1 = 0
dc4_4 - dc4_4.0 - dc4_4.1 = 0
dm4_4 - dm4_4.0 - dm4_4.1 = 0
d8_9 - d8_9.0 - d8_9.1 = 0
d8_9.0 - dc8_9.0 - dm8_9.0 = 0
d8_9.1 - dc8_9.1 - dm8_9.1 = 0
dc8_9 - dc8_9.0 - dc8_9.1 = 0
dm8_9 - dm8_9.0 - dm8_9.1 = 0
d8_10 - d8_10.0 - d8_10.1 = 0
d8_10.0 - dc8_10.0 - dm8_10.0 = 0
d8_10.1 - dc8_10.1 - dm8_10.1 = 0
dc8_10 - dc8_10.0 - dc8_10.1 = 0
dm8_10 - dm8_10.0 - dm8_10.1 = 0
d10_11 - d10_11.0 - d10_11.1 = 0
d10_11.0 - dc10_11.0 - dm10_11.0 = 0
d10_11.1 - dc10_11.1 - dm10_11.1 = 0
dc10_11 - dc10_11.0 - dc10_11.1 = 0
dm10_11 - dm10_11.0 - dm10_11.1 = 0
d10_12 - d10_12.0 - d10_12.1 = 0
d10_12.0 - dc10_12.0 - dm10_12.0 = 0
d10_12.1 - dc10_12.1 - dm10_12.1 = 0
dc10_12 - dc10_12.0 - dc10_12.1 = 0
dm10_12 - dm10_12.0 - dm10_12.1 = 0
d9_10 - d9_10.0 - d9_10.1 = 0
d11_15 - d11_15.0 - d11_15.1 = 0
d12_13 - d12_13.0 - d12_13.1 = 0
d12_13.0 - dc12_13.0 - dm12_13.0 = 0
d12_13.1 - dc12_13.1 - dm12_13.1 = 0
dc12_13 - dc12_13.0 - dc12_13.1 = 0
dm12_13 - dm12_13.0 - dm12_13.1 = 0
d12_14 - d12_14.0 - d12_14.1 = 0
d12_14.0 - dc12_14.0 - dm12_14.0 = 0
d12_14.1 - dc12_14.1 - dm12_14.1 = 0
dc12_14 - dc12_14.0 - dc12_14.1 = 0
dm12_14 - dm12_14.0 - dm12_14.1 = 0
d15_16 - d15_16.0 - d15_16.1 = 0
d15_16.0 - dc15_16.0 - dm15_16.0 = 0
d15_16.1 - dc15_16.1 - dm15_16.1 = 0
dc15_16 - dc15_16.0 - dc15_16.1 = 0
dm15_16 - dm15_16.0 - dm15_16.1 = 0
d15_3 - d15_3.0 - d15_3.1 = 0
d15_3.0 - dc15_3.0 - dm15_3.0 = 0
d15_3.1 - dc15_3.1 - dm15_3.1 = 0
dc15_3 - dc15_3.0 - dc15_3.1 = 0
dm15_3 - dm15_3.0 - dm15_3.1 = 0
d13_14 - d13_14.0 - d13_14.1 = 0
d14_15 - d14_15.0 - d14_15.1 = 0

\ === user constraints (loop bound etc) ===
b0 = 1
b1 = 1
b2 = 1
b18+ b3 = 700
b20+ b5 = 700
b22+ b7 = 700
b25+ b10 = 700
b30+ b15 = 700
b16 = 1
b31+ b19+ b17+ b4- 34 b18- 34 b3 <=  0
b31+ b19+ b17+ b4- 34 b18- 34 b3 <=  0
b31+ b19+ b17+ b4- 34 b18- 34 b3 <=  0
b31+ b19+ b17+ b4- 34 b18- 34 b3 <=  0

Generals

bm
Sta
b0
d0_2
b1
b2
d2_16
d2_18
b3
d3_5
d3_17
b4
d4_5
d4_4
b5
d5_6
d5_7
b6
d6_7
b7
d7_8
d7_10
b8
d8_9
d8_10
b9
d9_10
b10
d10_11
d10_12
b11
d11_15
b12
d12_13
d12_14
b13
d13_14
b14
d14_15
b15
d15_16
d15_3
b16
d16_1
b17
d17_4
d17_5
b18
d18_20
d18_31
b19
d19_20
d19_19
b20
d20_21
d20_22
b21
d21_22
b22
d22_23
d22_25
b23
d23_24
d23_25
b24
d24_25
b25
d25_26
d25_27
b26
d26_30
b27
d27_28
d27_29
b28
d28_29
b29
d29_30
b30
d30_3
d30_16
b31
d31_19
d31_20
c0
f0_1N
f0_1N
c1
f1_3N
f1_2T
f1_3N
f1_2T
c2
f2_5T
f2_4N
f2_5T
f2_4N
c3
f3_7N
f3_6T
f3_7N
f3_6T
c4
f4_9T
f4_8N
f4_9T
f4_8N
c5
f5_11T
f5_10N
f5_11T
f5_10N
c6
f6_13T
f6_12N
f6_13T
f6_12N
c7
f7_15T
f7_14N
f7_15T
f7_14N
c8
f8_9T
f8_16N
f8_9T
f8_16N
c9
f9_18T
f9_17N
f9_18T
f9_17N
c10
f10_9T
f10_16N
f10_9T
f10_16N
c11
f11_18T
f11_17N
f11_18T
f11_17N
c12
f12_15T
f12_14N
f12_15T
f12_14N
c13
f13_13T
f13_12N
f13_13T
f13_12N
c14
f14_9T
f14_8N
f14_9T
f14_8N
c15
f15_11T
f15_10N
f15_11T
f15_10N
c16
f16_20T
f16_19N
f16_20T
f16_19N
c17
f17_21T
f17_21T
c18
f18_22T
f18_17N
f18_22T
f18_17N
c19
f19_21T
f19_21T
c20
f20_22T
f20_17N
f20_22T
f20_17N
c21
f21_24N
f21_23T
f21_24N
f21_23T
c22
f22_25T
f22_25T
c23
f23_27T
f23_26N
f23_27T
f23_26N
c24
f24_29N
f24_28T
f24_29N
f24_28T
c25
f25_24N
f25_23T
f25_24N
f25_23T
c26
f26_31T
f26_30N
f26_31T
f26_30N
c27
f27_33T
f27_32N
f27_33T
f27_32N
c28
f28_35T
f28_34N
f28_35T
f28_34N
c29
f29_37T
f29_36N
f29_37T
f29_36N
c30
f30_31T
f30_38N
f30_31T
f30_38N
c31
f31_40T
f31_39N
f31_40T
f31_39N
c32
f32_31T
f32_38N
f32_31T
f32_38N
c33
f33_40T
f33_39N
f33_40T
f33_39N
c34
f34_37T
f34_36N
f34_37T
f34_36N
c35
f35_35T
f35_34N
f35_35T
f35_34N
c36
f36_31T
f36_30N
f36_31T
f36_30N
c37
f37_33T
f37_32N
f37_33T
f37_32N
c38
f38_42T
f38_41N
f38_42T
f38_41N
c39
f39_21T
f39_21T
c40
f40_43T
f40_39N
f40_43T
f40_39N
c41
f41_21T
f41_21T
c42
f42_43T
f42_39N
f42_43T
f42_39N
c43
f43_25T
f43_25T
fc0_1N
fm0_1N
fc1_3N
fm1_3N
fc1_2T
fm1_2T
fc2_5T
fm2_5T
fc2_4N
fm2_4N
fc3_7N
fm3_7N
fc3_6T
fm3_6T
fc4_9T
fm4_9T
fc4_8N
fm4_8N
fc5_11T
fm5_11T
fc5_10N
fm5_10N
fc6_13T
fm6_13T
fc6_12N
fm6_12N
fc7_15T
fm7_15T
fc7_14N
fm7_14N
fc8_9T
fm8_9T
fc8_16N
fm8_16N
fc9_18T
fm9_18T
fc9_17N
fm9_17N
fc10_9T
fm10_9T
fc10_16N
fm10_16N
fc11_18T
fm11_18T
fc11_17N
fm11_17N
fc12_15T
fm12_15T
fc12_14N
fm12_14N
fc13_13T
fm13_13T
fc13_12N
fm13_12N
fc14_9T
fm14_9T
fc14_8N
fm14_8N
fc15_11T
fm15_11T
fc15_10N
fm15_10N
fc16_20T
fm16_20T
fc16_19N
fm16_19N
fc17_21T
fm17_21T
fc18_22T
fm18_22T
fc18_17N
fm18_17N
fc19_21T
fm19_21T
fc20_22T
fm20_22T
fc20_17N
fm20_17N
fc21_24N
fm21_24N
fc21_23T
fm21_23T
fc22_25T
fm22_25T
fc23_27T
fm23_27T
fc23_26N
fm23_26N
fc24_29N
fm24_29N
fc24_28T
fm24_28T
fc25_24N
fm25_24N
fc25_23T
fm25_23T
fc26_31T
fm26_31T
fc26_30N
fm26_30N
fc27_33T
fm27_33T
fc27_32N
fm27_32N
fc28_35T
fm28_35T
fc28_34N
fm28_34N
fc29_37T
fm29_37T
fc29_36N
fm29_36N
fc30_31T
fm30_31T
fc30_38N
fm30_38N
fc31_40T
fm31_40T
fc31_39N
fm31_39N
fc32_31T
fm32_31T
fc32_38N
fm32_38N
fc33_40T
fm33_40T
fc33_39N
fm33_39N
fc34_37T
fm34_37T
fc34_36N
fm34_36N
fc35_35T
fm35_35T
fc35_34N
fm35_34N
fc36_31T
fm36_31T
fc36_30N
fm36_30N
fc37_33T
fm37_33T
fc37_32N
fm37_32N
fc38_42T
fm38_42T
fc38_41N
fm38_41N
fc39_21T
fm39_21T
fc40_43T
fm40_43T
fc40_39N
fm40_39N
fc41_21T
fm41_21T
fc42_43T
fm42_43T
fc42_39N
fm42_39N
fc43_25T
fm43_25T
dc2_16
dm2_16
dc2_18
dm2_18
dc3_5
dm3_5
dc3_17
dm3_17
dc4_5
dm4_5
dc4_4
dm4_4
dc5_6
dm5_6
dc5_7
dm5_7
dc7_8
dm7_8
dc7_10
dm7_10
dc8_9
dm8_9
dc8_10
dm8_10
dc10_11
dm10_11
dc10_12
dm10_12
dc12_13
dm12_13
dc12_14
dm12_14
dc15_16
dm15_16
dc15_3
dm15_3
dc17_4
dm17_4
dc17_5
dm17_5
dc18_20
dm18_20
dc18_31
dm18_31
dc19_20
dm19_20
dc19_19
dm19_19
dc20_21
dm20_21
dc20_22
dm20_22
dc22_23
dm22_23
dc22_25
dm22_25
dc23_24
dm23_24
dc23_25
dm23_25
dc25_26
dm25_26
dc25_27
dm25_27
dc27_28
dm27_28
dc27_29
dm27_29
dc30_3
dm30_3
dc30_16
dm30_16
dc31_19
dm31_19
dc31_20
dm31_20

End
